(set-logic ALL)
(declare-fun seed0_T_1 () Bool)
(declare-fun seed0_T_10 () Bool)
(declare-fun seed0_T_11 () Bool)
(declare-fun seed0_T_2 () Bool)
(declare-fun seed0_T_3 () Bool)
(declare-fun seed0_T_4 () Bool)
(declare-fun seed0_T_5 () Bool)
(declare-fun seed0_T_6 () Bool)
(declare-fun seed0_T_7 () Bool)
(declare-fun seed0_T_8 () Bool)
(declare-fun seed0_T_9 () Bool)
(declare-fun seed0_T_a () Bool)
(declare-fun seed0_T_b () Bool)
(declare-fun seed0_T_c () Bool)
(declare-fun seed0_T_d () Bool)
(declare-fun seed0_T_e () Bool)
(declare-fun seed0_T_f () Bool)
(declare-fun seed0_var_0xINPUT_216485 () String)
(assert (and (or (= seed0_T_1 (not (= "" seed0_var_0xINPUT_216485))) (=> (str.contains (str.++ seed0_var_0xINPUT_216485 "4Wp2AGt") (str.++ seed0_var_0xINPUT_216485 "D3QCNqjfdEGiRgK")) (str.<= (str.++ seed0_var_0xINPUT_216485 "uyrtiPJ0") (str.++ seed0_var_0xINPUT_216485 "")))) (or seed0_T_1 (or (str.prefixof (str.++ seed0_var_0xINPUT_216485 "m2BruIPKQZU4LJOl7") (str.++ seed0_var_0xINPUT_216485 "FfV")) (str.contains (str.++ seed0_var_0xINPUT_216485 "Lv1xNen2JjrzSFCR0") (str.++ seed0_var_0xINPUT_216485 "iFvLjT6M4x1sPb")))) (or (= seed0_T_2 (not (= "" seed0_var_0xINPUT_216485))) (not (str.suffixof (str.++ seed0_var_0xINPUT_216485 "") (str.++ seed0_var_0xINPUT_216485 "m6RoDPhWYdJx2UF")))) (or seed0_T_2 (str.contains (str.++ seed0_var_0xINPUT_216485 "5lUQViK") (str.++ seed0_var_0xINPUT_216485 "qEoiI2Kr03f1gsy"))) (or (= seed0_T_3 (not (= "" seed0_var_0xINPUT_216485))) (xor (str.suffixof (str.++ seed0_var_0xINPUT_216485 "Xeng1dxNf4F3RGyA") (str.++ seed0_var_0xINPUT_216485 "qezAcLyTGIxZFovUM")) (str.<= (str.++ seed0_var_0xINPUT_216485 "tBD9X") (str.++ seed0_var_0xINPUT_216485 "ShNrMa2uvfj3")))) (or seed0_T_3 (=> (str.< (str.++ seed0_var_0xINPUT_216485 "QcthYX3Gf261OobBV") (str.++ seed0_var_0xINPUT_216485 "76unFQERl")) (str.< (str.++ seed0_var_0xINPUT_216485 "cK8eWm36zV") (str.++ seed0_var_0xINPUT_216485 "D9VgMx5SGlOH8u4J0r")))) (or (= seed0_T_4 (not (= seed0_var_0xINPUT_216485 ""))) (and (str.contains (str.++ seed0_var_0xINPUT_216485 "APUvp") (str.++ seed0_var_0xINPUT_216485 "RFhsMjPXqJol9")) (str.suffixof (str.++ seed0_var_0xINPUT_216485 "gYxqNXh9rd2s") (str.++ seed0_var_0xINPUT_216485 "8vZEhw2")))) (or seed0_T_4 (str.prefixof (str.++ seed0_var_0xINPUT_216485 "C9Km") (str.++ seed0_var_0xINPUT_216485 "UftA4In"))) (or (= seed0_T_5 (= seed0_var_0xINPUT_216485 "")) (and (str.prefixof (str.++ seed0_var_0xINPUT_216485 "aZ6hrFTD") (str.++ seed0_var_0xINPUT_216485 "yugXAdLzmQoO2W")) (str.contains (str.++ seed0_var_0xINPUT_216485 "JsYEwUHlXoQbcaTm") (str.++ seed0_var_0xINPUT_216485 "Mh8c3RO1F2fjTC09B")))) (or (= seed0_T_6 (not seed0_T_5)) (str.suffixof (str.++ seed0_var_0xINPUT_216485 "t3NKmhs") (str.++ seed0_var_0xINPUT_216485 "p"))) (or seed0_T_6 (not (str.prefixof (str.++ seed0_var_0xINPUT_216485 "0lXuI86dCpUjEP") (str.++ seed0_var_0xINPUT_216485 "Ooi")))) (or (= seed0_T_7 (not (= "" seed0_var_0xINPUT_216485))) (str.contains (str.++ seed0_var_0xINPUT_216485 "qjM4t") (str.++ seed0_var_0xINPUT_216485 "cvfLXtgzKJI95UWq"))) (or seed0_T_7 (or (str.< (str.++ seed0_var_0xINPUT_216485 "zKqXyjQfw5xVcvRdrDF") (str.++ seed0_var_0xINPUT_216485 "uJzUbH")) (str.contains (str.++ seed0_var_0xINPUT_216485 "aq7bVA61dvPG2oBhzw") (str.++ seed0_var_0xINPUT_216485 "eJo12rWSdOCAMmXj")))) (or (= seed0_T_8 (not (= "ywUN4ZIDAC" seed0_var_0xINPUT_216485))) (or (str.prefixof (str.++ seed0_var_0xINPUT_216485 "xPkTvKfGtrOD") (str.++ seed0_var_0xINPUT_216485 "H4UrqjbL5fmFenZN271")) (str.<= (str.++ seed0_var_0xINPUT_216485 "") (str.++ seed0_var_0xINPUT_216485 "DB")))) (or seed0_T_8 (xor (str.< (str.++ seed0_var_0xINPUT_216485 "zS") (str.++ seed0_var_0xINPUT_216485 "17UWAQD3VjxBa5Jvlu")) (str.contains (str.++ seed0_var_0xINPUT_216485 "vabirWGQRV9HKmO25J8o") (str.++ seed0_var_0xINPUT_216485 "YFdqWBb")))) (or (= seed0_T_9 (not (= seed0_var_0xINPUT_216485 "ywUN4ZIDAC"))) (not (str.contains (str.++ seed0_var_0xINPUT_216485 "jAOrYsMapTf") (str.++ seed0_var_0xINPUT_216485 "x8LNS371Ke6p9Qzah")))) (or seed0_T_9 (and (str.<= (str.++ seed0_var_0xINPUT_216485 "A") (str.++ seed0_var_0xINPUT_216485 "r")) (str.<= (str.++ seed0_var_0xINPUT_216485 "RK") (str.++ seed0_var_0xINPUT_216485 "f5UkNWCgqotb2")))) (or (= seed0_T_a (= seed0_var_0xINPUT_216485 "")) (xor (str.suffixof (str.++ seed0_var_0xINPUT_216485 "rMByq1") (str.++ seed0_var_0xINPUT_216485 "GJ")) (str.contains (str.++ seed0_var_0xINPUT_216485 "7nwl") (str.++ seed0_var_0xINPUT_216485 "2pIZTYGcfLj3U")))) (or (= seed0_T_b (not seed0_T_a)) (not (str.contains (str.++ seed0_var_0xINPUT_216485 "cQDHAgVP2ZjobUhp0") (str.++ seed0_var_0xINPUT_216485 "")))) (or seed0_T_b (=> (str.prefixof (str.++ seed0_var_0xINPUT_216485 "gn7x5N") (str.++ seed0_var_0xINPUT_216485 "8YLKiepPMkXGRdx")) (str.<= (str.++ seed0_var_0xINPUT_216485 "v0iVzFwuLWtIaQ") (str.++ seed0_var_0xINPUT_216485 "cX")))) (or (= seed0_T_c (not (= "" seed0_var_0xINPUT_216485))) (not (str.contains (str.++ seed0_var_0xINPUT_216485 "l5ovqQw6W7XAZDdVPmSU") (str.++ seed0_var_0xINPUT_216485 "8LZvXk")))) (or seed0_T_c (not (str.prefixof (str.++ seed0_var_0xINPUT_216485 "qlo3ctdEn") (str.++ seed0_var_0xINPUT_216485 "OxzQ")))) (or (= seed0_T_d (not (= "ywUN4ZIDAC" seed0_var_0xINPUT_216485))) (str.prefixof (str.++ seed0_var_0xINPUT_216485 "Hype3YVKJsQx6FCMARu4") (str.++ seed0_var_0xINPUT_216485 "EFIQv7hiVtA9kUgm"))) (or seed0_T_d (str.<= (str.++ seed0_var_0xINPUT_216485 "dOUPXuM8") (str.++ seed0_var_0xINPUT_216485 ""))) (or (= seed0_T_e (not (= seed0_var_0xINPUT_216485 "ywUN4ZIDAC"))) (or (str.contains (str.++ seed0_var_0xINPUT_216485 "gGRcYielMV") (str.++ seed0_var_0xINPUT_216485 "DdvNEqQPW4LCxHuy")) (str.suffixof (str.++ seed0_var_0xINPUT_216485 "0C") (str.++ seed0_var_0xINPUT_216485 "eqRNy5JEchbZ76zAY3")))) (or seed0_T_e (and (str.< (str.++ seed0_var_0xINPUT_216485 "k") (str.++ seed0_var_0xINPUT_216485 "M1GryObLHDtNcoYJ")) (str.< (str.++ seed0_var_0xINPUT_216485 "HGhRa69dTbAu") (str.++ seed0_var_0xINPUT_216485 "cmsFEdwU3JPHagV")))) (or (= seed0_T_f (= seed0_var_0xINPUT_216485 "")) (str.prefixof (str.++ seed0_var_0xINPUT_216485 "3iPesX") (str.++ seed0_var_0xINPUT_216485 "RLCK46GqZw5AUcY29O8"))) (or (= seed0_T_10 (not seed0_T_f)) (str.< (str.++ seed0_var_0xINPUT_216485 "xD3qXmvdcphFLSOu2") (str.++ seed0_var_0xINPUT_216485 "ItbuHADjp6U"))) (or seed0_T_10 (str.suffixof (str.++ seed0_var_0xINPUT_216485 "zw4nsMuj") (str.++ seed0_var_0xINPUT_216485 "eOqjfBp"))) (or (= seed0_T_11 (not (= seed0_var_0xINPUT_216485 ""))) (xor (str.suffixof (str.++ seed0_var_0xINPUT_216485 "zemoETh9B2fAP43qVKuv") (str.++ seed0_var_0xINPUT_216485 "47AHYnW")) (str.< (str.++ seed0_var_0xINPUT_216485 "JE3ASlO26yowNrQRBqMv") (str.++ seed0_var_0xINPUT_216485 "u4HdvTDeqfxWionlb")))) (or seed0_T_11 (str.<= (str.++ seed0_var_0xINPUT_216485 "EdtNqigruQPLH7G") (str.++ seed0_var_0xINPUT_216485 "meL8rf04Ho1")))))
(check-sat)
(exit)